NAME: line_30_29
TYPE: TSP
COMMENT: srandom_30_29
DIMENSION: 30
EDGE_WEIGHT_TYPE: EUC_2D
NODE_COORD_SECTION
1 4370 1689
2 2749 1370
3 2705 1319
4 1735 1745
5 4728 77
6 679 4679
7 3962 2536
8 1582 4946
9 2052 309
10 2796 3780
11 2893 4328
12 3515 1068
13 436 4659
14 3004 4988
15 3558 3963
16 180 2360
17 3473 4872
18 758 732
19 4751 4300
20 3954 2023
21 3744 3016
22 2213 2050
23 2582 3885
24 70 1598
25 621 4832
26 2259 4968
27 3559 33
28 4307 2519
29 3240 1234
30 4165 2728
